
  12    4
  10   10   10   10

   0   0   0   0   0   7 2 3 5 6 7 10 11 
   2  10  10  10  10   2 8 4 
   1  10  10  10  10   2 9 8 
   2  10  10  10  10   1 9 
   1  10  10  10  10   1 9 
   9  10  10  10  10   1 8 
   5  10  10  10  10   1 8 
   3  10  10  10  10   1 12
   8  10  10  10  10   1 12
   3  10  10  10  10   1 12
  10  10  10  10  10   1 12
   0   0   0   0   0   0 
